n = 100;
C = 494;
w = [156,230,734,348,219,111,991,700,626,75,502,149,670,984,382,27,248,98,624,480,856,706,711,97,984,826,592,723,592,632,961,368,173,745,881,174,736,88,833,858,788,623,689,833,144,893,718,599,166,224,771,275,794,205,13,411,607,366,212,868,167,235,54,541,458,212,846,68,489,286,998,937,898,436,760,130,839,728,731,238,218,794,971,758,356,88,90,545,31,15,519,543,464,289,196,600,273,639,564,342];
p = [790,1160,3680,1750,1105,565,4965,3510,3140,385,2520,755,3360,4930,1920,145,1250,500,3130,2410,4290,3540,3565,495,4930,4140,2970,3625,2970,3170,4815,1850,875,3735,4415,880,3690,450,4175,4300,3950,3125,3455,4175,730,4475,3600,3005,840,1130,3865,1385,3980,1035,75,2065,3045,1840,1070,4350,845,1185,280,2715,2300,1070,4240,350,2455,1440,5000,4695,4500,2190,3810,660,4205,3650,3665,1200,1100,3980,4865,3800,1790,450,460,2735,165,85,2605,2725,2330,1455,990,3010,1375,3205,2830,1720];
